NAME: GRASP_41_12
TYPE: TSP
COMMENT: line_41_12
DIMENSION: 41
EDGE_WEIGHT_TYPE: EUC_2D
NODE_COORD_SECTION
1 2351 3690
2 2033 2741
3 3830 2864
4 4627 2370
5 696 911
6 954 4171
7 2506 235
8 3178 2592
9 766 3468
10 1402 977
11 2648 4164
12 703 4063
13 2617 891
14 4018 3166
15 1907 1712
16 273 2544
17 4773 1727
18 1678 1965
19 3276 1742
20 77 1699
21 1505 819
22 555 4178
23 2475 1270
24 2269 2731
25 386 2964
26 2635 3050
27 557 2293
28 3007 571
29 7 3681
30 3997 2221
31 2054 573
32 941 1764
33 4828 4507
34 1146 2642
35 2157 3784
36 3312 1361
37 2634 4819
38 874 3953
39 1445 1790
40 4601 826
41 1087 590
